&control
   prefix = 'WS2'
   !pseudo_dir = '/global/u2/w/wkim94/pseudo/pseudodojo/nc-sr-04_pbe_standard_upf/'
   pseudo_dir = '/work2/08702/wkim94/frontera/pseudo/pseudodojo/nc-sr-04_pbe_standard_upf/'
   calculation = 'scf'
   verbosity = 'high'
/
&system
   ecutwfc = 20.0
   ibrav = 0
   nat = 21
   ntyp = 2
!   lspinorb = .true.
!   noncolin = .true.
   nosym = .true.
   noinv = .true.
   nbnd = 182.00
/
&electrons
   electron_maxstep = 100
   conv_thr = 1e-06
   mixing_mode = 'plain'
   mixing_beta = 0.3
   mixing_ndim = 8
   diagonalization = 'david'
   diago_david_ndim = 4
   diago_full_acc = .true.
/
CELL_PARAMETERS (angstrom)
 6.300000000000 5.455960043800 0.000000000000
-1.575000000000 8.183940065700 0.000000000000
 0.000000000000 0.000000000000 25.000000000000
ATOMIC_SPECIES 
   W 183.84 'W.upf'
   S 78.96  'S.upf'
ATOMIC_POSITIONS crystal
 W   0.380952380952 0.523809523810 0.500000000000 
 W   0.666666666667 0.666666666667 0.500000000000 
 W   0.952380952381 0.809523809524 0.500000000000 
 W   0.238095238095 0.952380952381 0.500000000000 
 W   0.523809523810 0.095238095238 0.500000000000 
 W   0.809523809524 0.238095238095 0.500000000000 
 W   0.095238095238 0.380952380952 0.500000000000 
 S   0.619047619048 0.476190476190 0.436000000000 
 S   0.904761904762 0.619047619048 0.436000000000 
 S   0.190476190476 0.761904761905 0.436000000000 
 S   0.476190476190 0.904761904762 0.436000000000 
 S   0.761904761905 0.047619047619 0.436000000000 
 S   0.047619047619 0.190476190476 0.436000000000 
 S   0.333333333333 0.333333333333 0.436000000000 
 S   0.619047619048 0.476190476190 0.564000000000 
 S   0.904761904762 0.619047619048 0.564000000000 
 S   0.190476190476 0.761904761905 0.564000000000 
 S   0.476190476190 0.904761904762 0.564000000000 
 S   0.761904761905 0.047619047619 0.564000000000 
 S   0.047619047619 0.190476190476 0.564000000000 
 S   0.333333333333 0.333333333333 0.564000000000 
K_POINTS crystal
9
   0.001          0.000         0.000   1.0
   0.0010000000   0.3333333333  0.000   1.0
   0.0010000000   0.6666666667  0.000   1.0
   0.3343333333   0.0000000000  0.000   1.0
   0.3343333333   0.3333333333  0.000   1.0
   0.3343333333   0.6666666667  0.000   1.0
   0.6676666667   0.0000000000  0.000   1.0
   0.6676666667   0.3333333333  0.000   1.0
   0.6676666667   0.6666666667  0.000   1.0
