&control
   prefix = 'WS2'
   !pseudo_dir = '/global/u2/w/wkim94/pseudo/pseudodojo/nc-sr-04_pbe_standard_upf/'
   pseudo_dir = '/work2/08702/wkim94/frontera/pseudo/pseudodojo/nc-sr-04_pbe_standard_upf/'
   calculation = 'bands'
   verbosity = 'high'
/
&system
   ecutwfc = 20.0
!   A = 3.290
   ibrav = 0
   nat = 3
   ntyp = 2
!   lspinorb = .true.
!   noncolin = .true.
   nosym = .true.
   noinv = .true.
   nbnd = 20
/
&electrons
   electron_maxstep = 100
   conv_thr = 1e-06
   mixing_mode = 'plain'
   mixing_beta = 0.3
   mixing_ndim = 8
   diagonalization = 'david'
   diago_david_ndim = 4
   diago_full_acc = .true.
/
CELL_PARAMETERS {angstrom}
3.1500000000000 0.000000000000  0.00
1.575000000000  2.7279800219    0.00 
0.000000000000  0.000000000000  25.0 
ATOMIC_SPECIES 
   W 183.84 'W.upf'
   S 78.96  'S.upf'
ATOMIC_POSITIONS crystal
 W   0.33333333333333 0.33333333333333 0.5000000000 
 S   0.66666666666667 0.66666666666667 0.4360000000 
 S   0.66666666666667 0.66666666666667 0.5640000000 

K_POINTS crystal
63
0.0004285714  0.0002857143  0.0000000000  1.0
0.7147142857  0.1431428571  0.0000000000  1.0
0.4290000000  0.2860000000  0.0000000000  1.0
0.1432857143  0.4288571429  0.0000000000  1.0
0.8575714286  0.5717142857  0.0000000000  1.0
0.5718571429  0.7145714286  0.0000000000  1.0
0.2861428571  0.8574285714  0.0000000000  1.0
0.9051904762  0.0479047619  0.0000000000  1.0
0.6194761905  0.1907619048  0.0000000000  1.0
0.3337619048  0.3336190476  0.0000000000  1.0
0.0480476191  0.4764761905  0.0000000000  1.0
0.7623333333  0.6193333333  0.0000000000  1.0
0.4766190476  0.7621904762  0.0000000000  1.0
0.1909047619  0.9050476190  0.0000000000  1.0
0.8099523809  0.0955238095  0.0000000000  1.0
0.5242380952  0.2383809524  0.0000000000  1.0
0.2385238095  0.3812380952  0.0000000000  1.0
0.9528095238  0.5240952381  0.0000000000  1.0
0.6670952381  0.6669523810  0.0000000000  1.0
0.3813809524  0.8098095238  0.0000000000  1.0
0.0956666667  0.9526666667  0.0000000000  1.0
0.1432857143  0.0955238095  0.0000000000  1.0
0.8575714286  0.2383809524  0.0000000000  1.0
0.5718571428  0.3812380952  0.0000000000  1.0
0.2861428571  0.5240952381  0.0000000000  1.0
0.0004285714  0.6669523809  0.0000000000  1.0
0.7147142857  0.8098095238  0.0000000000  1.0
0.4290000000  0.9526666667  0.0000000000  1.0
0.3337619048  0.0002857143  0.0000000000  1.0
0.0480476190  0.1431428571  0.0000000000  1.0
0.7623333333  0.2860000000  0.0000000000  1.0
0.4766190476  0.4288571428  0.0000000000  1.0
0.1909047619  0.5717142857  0.0000000000  1.0
0.9051904762  0.7145714286  0.0000000000  1.0
0.6194761905  0.8574285714  0.0000000000  1.0
0.2385238095  0.0479047619  0.0000000000  1.0
0.9528095238  0.1907619048  0.0000000000  1.0
0.6670952381  0.3336190476  0.0000000000  1.0
0.3813809524  0.4764761905  0.0000000000  1.0
0.0956666666  0.6193333333  0.0000000000  1.0
0.8099523809  0.7621904762  0.0000000000  1.0
0.5242380952  0.9050476190  0.0000000000  1.0
0.5718571429  0.0479047619  0.0000000000  1.0
0.2861428572  0.1907619048  0.0000000000  1.0
0.0004285714  0.3336190476  0.0000000000  1.0
0.7147142857  0.4764761905  0.0000000000  1.0
0.4290000000  0.6193333333  0.0000000000  1.0
0.1432857143  0.7621904762  0.0000000000  1.0
0.8575714286  0.9050476191  0.0000000000  1.0
0.4766190476  0.0955238095  0.0000000000  1.0
0.1909047619  0.2383809524  0.0000000000  1.0
0.9051904762  0.3812380952  0.0000000000  1.0
0.6194761905  0.5240952381  0.0000000000  1.0
0.3337619048  0.6669523810  0.0000000000  1.0
0.0480476191  0.8098095238  0.0000000000  1.0
0.7623333334  0.9526666667  0.0000000000  1.0
0.6670952381  0.0002857143  0.0000000000  1.0
0.3813809524  0.1431428572  0.0000000000  1.0
0.0956666667  0.2860000000  0.0000000000  1.0
0.8099523810  0.4288571429  0.0000000000  1.0
0.5242380952  0.5717142857  0.0000000000  1.0
0.2385238095  0.7145714286  0.0000000000  1.0
0.9528095238  0.8574285714  0.0000000000  1.0
